BAYES
700
2 2 2 2 2 2 2 2 2 2 2 2 2 2 2 2 2 2 2 2 2 2 2 2 2 2 2 2 2 2 2 2 2 2 2 2 2 2 2 2 2 2 2 2 2 2 2 2 2 2 2 2 2 2 2 2 2 2 2 2 2 2 2 2 2 2 2 2 2 2 2 2 2 2 2 2 2 2 2 2 2 2 2 2 2 2 2 2 2 2 2 2 2 2 2 2 2 2 2 2 2 2 2 2 2 2 2 2 2 2 2 2 2 2 2 2 2 2 2 2 2 2 2 2 2 2 2 2 2 2 2 2 2 2 2 2 2 2 2 2 2 2 2 2 2 2 2 2 2 2 2 2 2 2 2 2 2 2 2 2 2 2 2 2 2 2 2 2 2 2 2 2 2 2 2 2 2 2 2 2 2 2 2 2 2 2 2 2 2 2 2 2 2 2 2 2 2 2 2 2 2 2 2 2 2 2 2 2 2 2 2 2 2 2 2 2 2 2 2 2 2 2 2 2 2 2 2 2 2 2 2 2 2 2 2 2 2 2 2 2 2 2 2 2 2 2 2 2 2 2 2 2 2 2 2 2 2 2 2 2 2 2 2 2 2 2 2 2 2 2 2 2 2 2 2 2 2 2 2 2 2 2 2 2 2 2 2 2 2 2 2 2 2 2 2 2 2 2 2 2 2 2 2 2 2 2 2 2 2 2 2 2 2 2 2 2 2 2 2 2 2 2 2 2 2 2 2 2 2 2 2 2 2 2 2 2 2 2 2 2 2 2 2 2 2 2 2 2 2 2 2 2 2 2 2 2 2 2 2 2 2 2 2 2 2 2 2 2 2 2 2 2 2 2 2 2 2 2 2 2 2 2 2 2 2 2 2 2 2 2 2 2 2 2 2 2 2 2 2 2 2 2 2 2 2 2 2 2 2 2 2 2 2 2 2 2 2 2 2 2 2 2 2 2 2 2 2 2 2 2 2 2 2 2 2 2 2 2 2 2 2 2 2 2 2 2 2 2 2 2 2 2 2 2 2 2 2 2 2 2 2 2 2 2 2 2 2 2 2 2 2 2 2 2 2 2 2 2 2 2 2 2 2 2 2 2 2 2 2 2 2 2 2 2 2 2 2 2 2 2 2 2 2 2 2 2 2 2 2 2 2 2 2 2 2 2 2 2 2 2 2 2 2 2 2 2 2 2 2 2 2 2 2 2 2 2 2 2 2 2 2 2 2 2 2 2 2 2 2 2 2 2 2 2 2 2 2 2 2 2 2 2 2 2 2 2 2 2 2 2 2 2 2 2 2 2 2 2 2 2 2 2 2 2 2 2 2 2 2 2 2 2 2 2 2 2 2 2 2 2 2 2 2 2 2 2 2 2 2 2 2 2 2 2 2 2 2 2 2 2 2 2 2 2 2 2 2 2 2 2 2 2 2 2 2 2 2 2 2 2 2 2 2 2 2 2 2 2 2 2 2 2 2 2 2 2 2 2 2 2 2 2 2 2 2 2 2 2 2 2 2 2 2 2 2 2 2 2 2 2 2 2 2 2 2 2 2 2 2 2 2 2 2 2 2 2 2 2 2 2
700
1 0
1 1
1 2
1 3
1 4
1 5
1 6
1 7
1 8
1 9
1 10
1 11
1 12
1 13
1 14
1 15
1 16
1 17
1 18
1 19
1 20
1 21
1 22
1 23
1 24
1 25
2 20 26
3 20 26 27
2 27 28
3 27 28 29
3 28 26 30
2 29 31
2 30 32
2 30 33
3 31 28 34
3 29 31 35
3 10 32 36
3 7 32 37
3 6 32 38
3 21 32 39
3 18 32 40
3 0 33 41
3 17 33 42
3 24 33 43
3 22 33 44
3 11 33 45
2 34 46
2 34 47
2 35 48
3 17 36 49
3 22 37 50
3 24 38 51
3 11 39 52
3 0 40 53
3 7 46 54
3 6 46 55
3 10 46 56
3 18 46 57
3 21 46 58
3 2 47 59
3 12 47 60
3 5 47 61
3 14 47 62
3 25 47 63
3 35 48 64
3 48 31 65
2 49 66
2 50 67
2 51 68
2 52 69
2 53 70
3 43 59 71
3 42 60 72
3 45 61 73
3 41 62 74
3 44 63 75
2 64 76
2 65 77
2 65 78
3 66 33 79
3 67 33 80
3 68 33 81
3 69 33 82
3 70 33 83
3 48 76 84
3 76 28 85
3 23 77 86
3 16 77 87
3 9 77 88
3 13 77 89
3 1 77 90
3 12 78 91
3 25 78 92
3 14 78 93
3 5 78 94
3 2 78 95
2 84 96
2 84 97
2 85 98
2 85 99
3 54 86 100
3 57 87 101
3 56 88 102
3 58 89 103
3 55 90 104
3 1 96 105
3 16 96 106
3 23 96 107
3 9 96 108
3 13 96 109
3 8 97 110
3 19 97 111
3 4 97 112
3 15 97 113
3 3 97 114
3 8 98 115
3 3 98 116
3 4 98 117
3 19 98 118
3 15 98 119
3 10 99 120
3 18 99 121
3 7 99 122
3 6 99 123
3 21 99 124
3 25 100 125
3 14 101 126
3 12 102 127
3 5 103 128
3 2 104 129
3 92 110 130
3 91 111 131
3 93 112 132
3 95 113 133
3 94 114 134
3 75 115 135
3 73 116 136
3 74 117 137
3 72 118 138
3 71 119 139
3 120 108 140
3 121 106 141
3 122 107 142
3 123 105 143
3 124 109 144
2 125 145
2 126 146
2 127 147
2 128 148
2 129 149
3 23 130 150
3 9 131 151
3 16 132 152
3 1 133 153
3 13 134 154
3 7 135 155
3 21 136 156
3 18 137 157
3 10 138 158
3 6 139 159
3 19 140 160
3 4 141 161
3 8 142 162
3 15 143 163
3 3 144 164
3 145 78 165
3 145 47 166
3 146 47 167
3 146 78 168
3 147 47 169
3 147 78 170
3 148 47 171
3 148 78 172
3 149 78 173
3 149 47 174
2 150 175
2 151 176
2 152 177
2 153 178
2 154 179
2 155 180
2 156 181
2 157 182
2 158 183
2 159 184
2 160 185
2 161 186
2 162 187
2 163 188
2 164 189
3 80 166 190
3 83 167 191
3 79 169 192
3 82 171 193
3 81 174 194
3 175 96 195
3 175 77 196
3 176 96 197
3 176 77 198
3 177 77 199
3 177 96 200
3 178 96 201
3 178 77 202
3 179 96 203
3 179 77 204
3 180 99 205
3 180 32 206
3 180 46 207
3 181 32 208
3 181 46 209
3 181 99 210
3 182 99 211
3 182 32 212
3 182 46 213
3 183 32 214
3 183 46 215
3 183 99 216
3 184 99 217
3 184 32 218
3 184 46 219
3 185 98 220
3 185 97 221
3 186 98 222
3 186 97 223
3 187 97 224
3 187 98 225
3 188 97 226
3 188 98 227
3 189 98 228
3 189 97 229
3 205 195 230
3 67 206 231
3 207 196 232
3 69 208 233
3 209 204 234
3 210 203 235
3 211 200 236
3 70 212 237
3 213 199 238
3 66 214 239
3 215 198 240
3 216 197 241
3 217 201 242
3 68 218 243
3 219 202 244
3 192 220 245
3 170 221 246
3 191 222 247
3 168 223 248
3 165 224 249
3 190 225 250
3 173 226 251
3 194 227 252
3 193 228 253
3 172 229 254
3 187 230 255
2 231 256
3 145 232 257
2 233 258
3 148 234 259
3 189 235 260
3 186 236 261
2 237 262
3 146 238 263
2 239 264
3 147 240 265
3 185 241 266
3 188 242 267
2 243 268
3 149 244 269
3 183 245 270
3 176 246 271
3 182 247 272
3 177 248 273
3 175 249 274
3 180 250 275
3 178 251 276
3 184 252 277
3 181 253 278
3 179 254 279
2 255 280
3 256 33 281
2 257 282
3 258 33 283
2 259 284
2 260 285
2 261 286
3 262 33 287
2 263 288
3 264 33 289
2 265 290
2 266 291
2 267 292
3 268 33 293
2 269 294
2 270 295
2 271 296
2 272 297
2 273 298
2 274 299
2 275 300
2 276 301
2 277 302
2 278 303
2 279 304
3 280 97 305
3 280 98 306
3 282 47 307
3 282 78 308
3 284 78 309
3 284 47 310
3 285 97 311
3 285 98 312
3 286 98 313
3 286 97 314
3 288 78 315
3 288 47 316
3 290 78 317
3 290 47 318
3 291 97 319
3 291 98 320
3 292 98 321
3 292 97 322
3 294 78 323
3 294 47 324
3 295 46 325
3 295 32 326
3 295 99 327
3 296 77 328
3 296 96 329
3 297 46 330
3 297 99 331
3 297 32 332
3 298 77 333
3 298 96 334
3 299 96 335
3 299 77 336
3 300 46 337
3 300 99 338
3 300 32 339
3 301 96 340
3 301 77 341
3 302 99 342
3 302 46 343
3 302 32 344
3 303 46 345
3 303 99 346
3 303 32 347
3 304 96 348
3 304 77 349
3 281 307 350
3 308 305 351
3 283 310 352
3 309 311 353
3 315 314 354
3 287 316 355
3 289 318 356
3 317 319 357
3 323 322 358
3 293 324 359
3 264 326 360
3 325 328 361
3 327 329 362
3 262 332 363
3 330 333 364
3 331 334 365
3 337 336 366
3 338 335 367
3 256 339 368
3 342 340 369
3 343 341 370
3 268 344 371
3 258 347 372
3 346 348 373
3 345 349 374
3 350 306 375
3 299 351 376
3 352 312 377
3 304 353 378
3 298 354 379
3 355 313 380
3 356 320 381
3 296 357 382
3 301 358 383
3 359 321 384
2 360 385
3 290 361 386
3 291 362 387
2 363 388
3 288 364 389
3 286 365 390
3 282 366 391
3 280 367 392
2 368 393
3 292 369 394
3 294 370 395
2 371 396
2 372 397
3 285 373 398
3 284 374 399
3 300 375 400
2 376 401
3 303 377 402
2 378 403
2 379 404
3 297 380 405
3 295 381 406
2 382 407
2 383 408
3 302 384 409
3 385 33 410
2 386 411
2 387 412
3 388 33 413
2 389 414
2 390 415
2 391 416
2 392 417
3 393 33 418
2 394 419
2 395 420
3 396 33 421
3 397 33 422
2 398 423
2 399 424
2 400 425
3 401 96 426
3 401 77 427
2 402 428
3 403 96 429
3 403 77 430
3 404 77 431
3 404 96 432
2 405 433
2 406 434
3 407 77 435
3 407 96 436
3 408 77 437
3 408 96 438
2 409 439
3 411 78 440
3 411 47 441
3 412 98 442
3 412 97 443
3 414 47 444
3 414 78 445
3 415 97 446
3 415 98 447
3 416 47 448
3 416 78 449
3 417 97 450
3 417 98 451
3 419 98 452
3 419 97 453
3 420 47 454
3 420 78 455
3 423 98 456
3 423 97 457
3 424 47 458
3 424 78 459
3 425 46 460
3 425 32 461
3 425 99 462
3 428 99 463
3 428 32 464
3 428 46 465
3 433 99 466
3 433 46 467
3 433 32 468
3 434 46 469
3 434 32 470
3 434 99 471
3 439 32 472
3 439 46 473
3 439 99 474
3 410 441 475
3 440 443 476
3 413 444 477
3 445 446 478
3 418 448 479
3 449 450 480
3 421 454 481
3 455 453 482
3 422 458 483
3 459 457 484
3 460 427 485
3 393 461 486
3 462 426 487
3 463 429 488
3 397 464 489
3 465 430 490
3 466 432 491
3 467 431 492
3 388 468 493
3 469 435 494
3 385 470 495
3 471 436 496
3 396 472 497
3 473 437 498
3 474 438 499
3 475 442 500
3 407 476 501
3 477 447 502
3 404 478 503
3 479 451 504
3 401 480 505
3 481 452 506
3 408 482 507
3 483 456 508
3 403 484 509
3 416 485 510
2 486 511
3 417 487 512
3 423 488 513
2 489 514
3 424 490 515
3 415 491 516
3 414 492 517
2 493 518
3 411 494 519
2 495 520
3 412 496 521
2 497 522
3 420 498 523
3 419 499 524
3 434 500 525
2 501 526
3 433 502 527
2 503 528
3 425 504 529
2 505 530
3 439 506 531
2 507 532
3 428 508 533
2 509 534
2 510 535
3 511 33 536
2 512 537
2 513 538
3 514 33 539
2 515 540
2 516 541
2 517 542
3 518 33 543
2 519 544
3 520 33 545
2 521 546
3 522 33 547
2 523 548
2 524 549
2 525 550
3 526 96 551
3 526 77 552
2 527 553
3 528 96 554
3 528 77 555
2 529 556
3 530 96 557
3 530 77 558
2 531 559
3 532 96 560
3 532 77 561
2 533 562
3 534 77 563
3 534 96 564
3 535 78 565
3 535 47 566
3 537 98 567
3 537 97 568
3 538 98 569
3 538 97 570
3 540 78 571
3 540 47 572
3 541 98 573
3 541 97 574
3 542 78 575
3 542 47 576
3 544 78 577
3 544 47 578
3 546 98 579
3 546 97 580
3 548 78 581
3 548 47 582
3 549 98 583
3 549 97 584
3 550 99 585
3 550 46 586
3 550 32 587
3 553 46 588
3 553 99 589
3 553 32 590
3 556 99 591
3 556 46 592
3 556 32 593
3 559 32 594
3 559 46 595
3 559 99 596
3 562 32 597
3 562 99 598
3 562 46 599
3 536 566 600
3 565 568 601
3 571 570 602
3 539 572 603
3 575 574 604
3 543 576 605
3 545 578 606
3 577 580 607
3 547 582 608
3 581 584 609
3 585 551 610
3 586 552 611
3 520 587 612
3 588 555 613
3 589 554 614
3 518 590 615
3 591 557 616
3 592 558 617
3 511 593 618
3 522 594 619
3 595 561 620
3 596 560 621
3 514 597 622
3 598 564 623
3 599 563 624
3 600 567 625
3 530 601 626
3 534 602 627
3 603 569 628
3 528 604 629
3 605 573 630
3 606 579 631
3 526 607 632
3 608 583 633
3 532 609 634
3 546 610 635
3 544 611 636
2 612 637
3 542 613 638
3 541 614 639
2 615 640
3 537 616 641
3 535 617 642
2 618 643
2 619 644
3 548 620 645
3 549 621 646
2 622 647
3 538 623 648
3 540 624 649
3 556 625 650
2 626 651
2 627 652
3 562 628 653
2 629 654
3 553 630 655
3 550 631 656
2 632 657
3 559 633 658
2 634 659
2 635 660
2 636 661
2 637 662
2 638 663
2 639 664
2 640 665
2 641 666
2 642 667
2 643 668
2 644 669
2 645 670
2 646 671
2 647 672
2 648 673
2 649 674
2 650 675
2 651 676
2 652 677
2 653 678
2 654 679
2 655 680
2 656 681
2 657 682
2 658 683
2 659 684
2 660 685
2 661 686
2 663 687
2 664 688
2 666 689
2 667 690
2 670 691
2 671 692
2 673 693
2 674 694
2 675 695
2 678 696
2 680 697
2 681 698
2 683 699

2
 1.0 0.0

2
 0.0 1.0

2
 1.0 0.0

2
 1.0 0.0

2
 1.0 0.0

2
 0.0 1.0

2
 1.0 0.0

2
 1.0 0.0

2
 0.0 1.0

2
 1.0 0.0

2
 1.0 0.0

2
 1.0 0.0

2
 1.0 0.0

2
 1.0 0.0

2
 1.0 0.0

2
 1.0 0.0

2
 1.0 0.0

2
 0.0 1.0

2
 0.0 1.0

2
 1.0 0.0

2
 1.0 0.0

2
 1.0 0.0

2
 1.0 0.0

2
 1.0 0.0

2
 1.0 0.0

2
 1.0 0.0

4
 0.8 0.2
 1.0 0.0

8
 1.0 0.0
 0.0 1.0
 0.0 1.0
 0.0 1.0

4
 0.75 0.25
 1.0 0.0

8
 1.0 0.0
 0.0 1.0
 0.0 1.0
 0.0 1.0

8
 1.0 0.0
 0.0 1.0
 0.0 1.0
 0.0 1.0

4
 0.6666666666666667 0.3333333333333333
 1.0 0.0

4
 1.0 0.0
 0.0 1.0

4
 1.0 0.0
 0.0 1.0

8
 1.0 0.0
 0.0 1.0
 0.0 1.0
 0.0 1.0

8
 1.0 0.0
 0.0 1.0
 0.0 1.0
 0.0 1.0

8
 1.0 0.0
 1.0 0.0
 0.0 1.0
 1.0 0.0

8
 1.0 0.0
 1.0 0.0
 0.0 1.0
 1.0 0.0

8
 1.0 0.0
 1.0 0.0
 0.0 1.0
 1.0 0.0

8
 1.0 0.0
 1.0 0.0
 0.0 1.0
 1.0 0.0

8
 1.0 0.0
 1.0 0.0
 0.0 1.0
 1.0 0.0

8
 1.0 0.0
 1.0 0.0
 0.0 1.0
 1.0 0.0

8
 1.0 0.0
 1.0 0.0
 0.0 1.0
 1.0 0.0

8
 1.0 0.0
 1.0 0.0
 0.0 1.0
 1.0 0.0

8
 1.0 0.0
 1.0 0.0
 0.0 1.0
 1.0 0.0

8
 1.0 0.0
 1.0 0.0
 0.0 1.0
 1.0 0.0

4
 1.0 0.0
 0.0 1.0

4
 1.0 0.0
 0.0 1.0

4
 0.5 0.5
 1.0 0.0

8
 1.0 0.0
 0.0 1.0
 0.0 1.0
 0.0 1.0

8
 1.0 0.0
 0.0 1.0
 0.0 1.0
 0.0 1.0

8
 1.0 0.0
 0.0 1.0
 0.0 1.0
 0.0 1.0

8
 1.0 0.0
 0.0 1.0
 0.0 1.0
 0.0 1.0

8
 1.0 0.0
 0.0 1.0
 0.0 1.0
 0.0 1.0

8
 1.0 0.0
 1.0 0.0
 0.0 1.0
 1.0 0.0

8
 1.0 0.0
 1.0 0.0
 0.0 1.0
 1.0 0.0

8
 1.0 0.0
 1.0 0.0
 0.0 1.0
 1.0 0.0

8
 1.0 0.0
 1.0 0.0
 0.0 1.0
 1.0 0.0

8
 1.0 0.0
 1.0 0.0
 0.0 1.0
 1.0 0.0

8
 1.0 0.0
 1.0 0.0
 0.0 1.0
 1.0 0.0

8
 1.0 0.0
 1.0 0.0
 0.0 1.0
 1.0 0.0

8
 1.0 0.0
 1.0 0.0
 0.0 1.0
 1.0 0.0

8
 1.0 0.0
 1.0 0.0
 0.0 1.0
 1.0 0.0

8
 1.0 0.0
 1.0 0.0
 0.0 1.0
 1.0 0.0

8
 1.0 0.0
 0.0 1.0
 0.0 1.0
 0.0 1.0

8
 1.0 0.0
 0.0 1.0
 0.0 1.0
 0.0 1.0

4
 1.0 0.0
 0.0 1.0

4
 1.0 0.0
 0.0 1.0

4
 1.0 0.0
 0.0 1.0

4
 1.0 0.0
 0.0 1.0

4
 1.0 0.0
 0.0 1.0

8
 1.0 0.0
 0.0 1.0
 0.0 1.0
 0.0 1.0

8
 1.0 0.0
 0.0 1.0
 0.0 1.0
 0.0 1.0

8
 1.0 0.0
 0.0 1.0
 0.0 1.0
 0.0 1.0

8
 1.0 0.0
 0.0 1.0
 0.0 1.0
 0.0 1.0

8
 1.0 0.0
 0.0 1.0
 0.0 1.0
 0.0 1.0

4
 0.0 1.0
 1.0 0.0

4
 1.0 0.0
 0.0 1.0

4
 1.0 0.0
 0.0 1.0

8
 1.0 0.0
 1.0 0.0
 0.0 1.0
 1.0 0.0

8
 1.0 0.0
 1.0 0.0
 0.0 1.0
 1.0 0.0

8
 1.0 0.0
 1.0 0.0
 0.0 1.0
 1.0 0.0

8
 1.0 0.0
 1.0 0.0
 0.0 1.0
 1.0 0.0

8
 1.0 0.0
 1.0 0.0
 0.0 1.0
 1.0 0.0

8
 1.0 0.0
 0.0 1.0
 0.0 1.0
 0.0 1.0

8
 1.0 0.0
 0.0 1.0
 0.0 1.0
 0.0 1.0

8
 1.0 0.0
 1.0 0.0
 0.0 1.0
 1.0 0.0

8
 1.0 0.0
 1.0 0.0
 0.0 1.0
 1.0 0.0

8
 1.0 0.0
 1.0 0.0
 0.0 1.0
 1.0 0.0

8
 1.0 0.0
 1.0 0.0
 0.0 1.0
 1.0 0.0

8
 1.0 0.0
 1.0 0.0
 0.0 1.0
 1.0 0.0

8
 1.0 0.0
 1.0 0.0
 0.0 1.0
 1.0 0.0

8
 1.0 0.0
 1.0 0.0
 0.0 1.0
 1.0 0.0

8
 1.0 0.0
 1.0 0.0
 0.0 1.0
 1.0 0.0

8
 1.0 0.0
 1.0 0.0
 0.0 1.0
 1.0 0.0

8
 1.0 0.0
 1.0 0.0
 0.0 1.0
 1.0 0.0

4
 1.0 0.0
 0.0 1.0

4
 1.0 0.0
 0.0 1.0

4
 1.0 0.0
 0.0 1.0

4
 1.0 0.0
 0.0 1.0

8
 1.0 0.0
 0.0 1.0
 0.0 1.0
 0.0 1.0

8
 1.0 0.0
 0.0 1.0
 0.0 1.0
 0.0 1.0

8
 1.0 0.0
 0.0 1.0
 0.0 1.0
 0.0 1.0

8
 1.0 0.0
 0.0 1.0
 0.0 1.0
 0.0 1.0

8
 1.0 0.0
 0.0 1.0
 0.0 1.0
 0.0 1.0

8
 1.0 0.0
 1.0 0.0
 0.0 1.0
 1.0 0.0

8
 1.0 0.0
 1.0 0.0
 0.0 1.0
 1.0 0.0

8
 1.0 0.0
 1.0 0.0
 0.0 1.0
 1.0 0.0

8
 1.0 0.0
 1.0 0.0
 0.0 1.0
 1.0 0.0

8
 1.0 0.0
 1.0 0.0
 0.0 1.0
 1.0 0.0

8
 1.0 0.0
 1.0 0.0
 0.0 1.0
 1.0 0.0

8
 1.0 0.0
 1.0 0.0
 0.0 1.0
 1.0 0.0

8
 1.0 0.0
 1.0 0.0
 0.0 1.0
 1.0 0.0

8
 1.0 0.0
 1.0 0.0
 0.0 1.0
 1.0 0.0

8
 1.0 0.0
 1.0 0.0
 0.0 1.0
 1.0 0.0

8
 1.0 0.0
 1.0 0.0
 0.0 1.0
 1.0 0.0

8
 1.0 0.0
 1.0 0.0
 0.0 1.0
 1.0 0.0

8
 1.0 0.0
 1.0 0.0
 0.0 1.0
 1.0 0.0

8
 1.0 0.0
 1.0 0.0
 0.0 1.0
 1.0 0.0

8
 1.0 0.0
 1.0 0.0
 0.0 1.0
 1.0 0.0

8
 1.0 0.0
 1.0 0.0
 0.0 1.0
 1.0 0.0

8
 1.0 0.0
 1.0 0.0
 0.0 1.0
 1.0 0.0

8
 1.0 0.0
 1.0 0.0
 0.0 1.0
 1.0 0.0

8
 1.0 0.0
 1.0 0.0
 0.0 1.0
 1.0 0.0

8
 1.0 0.0
 1.0 0.0
 0.0 1.0
 1.0 0.0

8
 1.0 0.0
 0.0 1.0
 0.0 1.0
 0.0 1.0

8
 1.0 0.0
 0.0 1.0
 0.0 1.0
 0.0 1.0

8
 1.0 0.0
 0.0 1.0
 0.0 1.0
 0.0 1.0

8
 1.0 0.0
 0.0 1.0
 0.0 1.0
 0.0 1.0

8
 1.0 0.0
 0.0 1.0
 0.0 1.0
 0.0 1.0

8
 1.0 0.0
 0.0 1.0
 0.0 1.0
 0.0 1.0

8
 1.0 0.0
 0.0 1.0
 0.0 1.0
 0.0 1.0

8
 1.0 0.0
 0.0 1.0
 0.0 1.0
 0.0 1.0

8
 1.0 0.0
 0.0 1.0
 0.0 1.0
 0.0 1.0

8
 1.0 0.0
 0.0 1.0
 0.0 1.0
 0.0 1.0

8
 1.0 0.0
 0.0 1.0
 0.0 1.0
 0.0 1.0

8
 1.0 0.0
 0.0 1.0
 0.0 1.0
 0.0 1.0

8
 1.0 0.0
 0.0 1.0
 0.0 1.0
 0.0 1.0

8
 1.0 0.0
 0.0 1.0
 0.0 1.0
 0.0 1.0

8
 1.0 0.0
 0.0 1.0
 0.0 1.0
 0.0 1.0

8
 1.0 0.0
 0.0 1.0
 0.0 1.0
 0.0 1.0

8
 1.0 0.0
 0.0 1.0
 0.0 1.0
 0.0 1.0

8
 1.0 0.0
 0.0 1.0
 0.0 1.0
 0.0 1.0

8
 1.0 0.0
 0.0 1.0
 0.0 1.0
 0.0 1.0

8
 1.0 0.0
 0.0 1.0
 0.0 1.0
 0.0 1.0

4
 1.0 0.0
 0.0 1.0

4
 1.0 0.0
 0.0 1.0

4
 1.0 0.0
 0.0 1.0

4
 1.0 0.0
 0.0 1.0

4
 1.0 0.0
 0.0 1.0

8
 1.0 0.0
 0.0 1.0
 0.0 1.0
 0.0 1.0

8
 1.0 0.0
 0.0 1.0
 0.0 1.0
 0.0 1.0

8
 1.0 0.0
 0.0 1.0
 0.0 1.0
 0.0 1.0

8
 1.0 0.0
 0.0 1.0
 0.0 1.0
 0.0 1.0

8
 1.0 0.0
 0.0 1.0
 0.0 1.0
 0.0 1.0

8
 1.0 0.0
 0.0 1.0
 0.0 1.0
 0.0 1.0

8
 1.0 0.0
 0.0 1.0
 0.0 1.0
 0.0 1.0

8
 1.0 0.0
 0.0 1.0
 0.0 1.0
 0.0 1.0

8
 1.0 0.0
 0.0 1.0
 0.0 1.0
 0.0 1.0

8
 1.0 0.0
 0.0 1.0
 0.0 1.0
 0.0 1.0

8
 1.0 0.0
 0.0 1.0
 0.0 1.0
 0.0 1.0

8
 1.0 0.0
 0.0 1.0
 0.0 1.0
 0.0 1.0

8
 1.0 0.0
 0.0 1.0
 0.0 1.0
 0.0 1.0

8
 1.0 0.0
 0.0 1.0
 0.0 1.0
 0.0 1.0

8
 1.0 0.0
 0.0 1.0
 0.0 1.0
 0.0 1.0

8
 1.0 0.0
 1.0 0.0
 0.0 1.0
 1.0 0.0

8
 1.0 0.0
 1.0 0.0
 0.0 1.0
 1.0 0.0

8
 1.0 0.0
 1.0 0.0
 0.0 1.0
 1.0 0.0

8
 1.0 0.0
 1.0 0.0
 0.0 1.0
 1.0 0.0

8
 1.0 0.0
 1.0 0.0
 0.0 1.0
 1.0 0.0

8
 1.0 0.0
 1.0 0.0
 0.0 1.0
 1.0 0.0

8
 1.0 0.0
 1.0 0.0
 0.0 1.0
 1.0 0.0

8
 1.0 0.0
 1.0 0.0
 0.0 1.0
 1.0 0.0

8
 1.0 0.0
 1.0 0.0
 0.0 1.0
 1.0 0.0

8
 1.0 0.0
 1.0 0.0
 0.0 1.0
 1.0 0.0

4
 1.0 0.0
 0.0 1.0

4
 1.0 0.0
 0.0 1.0

4
 1.0 0.0
 0.0 1.0

4
 1.0 0.0
 0.0 1.0

4
 1.0 0.0
 0.0 1.0

4
 1.0 0.0
 0.0 1.0

4
 1.0 0.0
 0.0 1.0

4
 1.0 0.0
 0.0 1.0

4
 1.0 0.0
 0.0 1.0

4
 1.0 0.0
 0.0 1.0

4
 1.0 0.0
 0.0 1.0

4
 1.0 0.0
 0.0 1.0

4
 1.0 0.0
 0.0 1.0

4
 1.0 0.0
 0.0 1.0

4
 1.0 0.0
 0.0 1.0

8
 1.0 0.0
 0.0 1.0
 0.0 1.0
 0.0 1.0

8
 1.0 0.0
 0.0 1.0
 0.0 1.0
 0.0 1.0

8
 1.0 0.0
 0.0 1.0
 0.0 1.0
 0.0 1.0

8
 1.0 0.0
 0.0 1.0
 0.0 1.0
 0.0 1.0

8
 1.0 0.0
 0.0 1.0
 0.0 1.0
 0.0 1.0

8
 1.0 0.0
 1.0 0.0
 0.0 1.0
 1.0 0.0

8
 1.0 0.0
 1.0 0.0
 0.0 1.0
 1.0 0.0

8
 1.0 0.0
 1.0 0.0
 0.0 1.0
 1.0 0.0

8
 1.0 0.0
 1.0 0.0
 0.0 1.0
 1.0 0.0

8
 1.0 0.0
 1.0 0.0
 0.0 1.0
 1.0 0.0

8
 1.0 0.0
 1.0 0.0
 0.0 1.0
 1.0 0.0

8
 1.0 0.0
 1.0 0.0
 0.0 1.0
 1.0 0.0

8
 1.0 0.0
 1.0 0.0
 0.0 1.0
 1.0 0.0

8
 1.0 0.0
 1.0 0.0
 0.0 1.0
 1.0 0.0

8
 1.0 0.0
 1.0 0.0
 0.0 1.0
 1.0 0.0

8
 1.0 0.0
 1.0 0.0
 0.0 1.0
 1.0 0.0

8
 1.0 0.0
 1.0 0.0
 0.0 1.0
 1.0 0.0

8
 1.0 0.0
 1.0 0.0
 0.0 1.0
 1.0 0.0

8
 1.0 0.0
 1.0 0.0
 0.0 1.0
 1.0 0.0

8
 1.0 0.0
 1.0 0.0
 0.0 1.0
 1.0 0.0

8
 1.0 0.0
 1.0 0.0
 0.0 1.0
 1.0 0.0

8
 1.0 0.0
 1.0 0.0
 0.0 1.0
 1.0 0.0

8
 1.0 0.0
 1.0 0.0
 0.0 1.0
 1.0 0.0

8
 1.0 0.0
 1.0 0.0
 0.0 1.0
 1.0 0.0

8
 1.0 0.0
 1.0 0.0
 0.0 1.0
 1.0 0.0

8
 1.0 0.0
 1.0 0.0
 0.0 1.0
 1.0 0.0

8
 1.0 0.0
 1.0 0.0
 0.0 1.0
 1.0 0.0

8
 1.0 0.0
 1.0 0.0
 0.0 1.0
 1.0 0.0

8
 1.0 0.0
 1.0 0.0
 0.0 1.0
 1.0 0.0

8
 1.0 0.0
 1.0 0.0
 0.0 1.0
 1.0 0.0

8
 1.0 0.0
 1.0 0.0
 0.0 1.0
 1.0 0.0

8
 1.0 0.0
 1.0 0.0
 0.0 1.0
 1.0 0.0

8
 1.0 0.0
 1.0 0.0
 0.0 1.0
 1.0 0.0

8
 1.0 0.0
 1.0 0.0
 0.0 1.0
 1.0 0.0

8
 1.0 0.0
 1.0 0.0
 0.0 1.0
 1.0 0.0

8
 1.0 0.0
 1.0 0.0
 0.0 1.0
 1.0 0.0

8
 1.0 0.0
 1.0 0.0
 0.0 1.0
 1.0 0.0

8
 1.0 0.0
 1.0 0.0
 0.0 1.0
 1.0 0.0

8
 1.0 0.0
 1.0 0.0
 0.0 1.0
 1.0 0.0

8
 1.0 0.0
 1.0 0.0
 0.0 1.0
 1.0 0.0

8
 1.0 0.0
 0.0 1.0
 0.0 1.0
 0.0 1.0

8
 1.0 0.0
 0.0 1.0
 0.0 1.0
 0.0 1.0

8
 1.0 0.0
 0.0 1.0
 0.0 1.0
 0.0 1.0

8
 1.0 0.0
 0.0 1.0
 0.0 1.0
 0.0 1.0

8
 1.0 0.0
 0.0 1.0
 0.0 1.0
 0.0 1.0

8
 1.0 0.0
 0.0 1.0
 0.0 1.0
 0.0 1.0

8
 1.0 0.0
 0.0 1.0
 0.0 1.0
 0.0 1.0

8
 1.0 0.0
 0.0 1.0
 0.0 1.0
 0.0 1.0

8
 1.0 0.0
 0.0 1.0
 0.0 1.0
 0.0 1.0

8
 1.0 0.0
 0.0 1.0
 0.0 1.0
 0.0 1.0

8
 1.0 0.0
 0.0 1.0
 0.0 1.0
 0.0 1.0

8
 1.0 0.0
 0.0 1.0
 0.0 1.0
 0.0 1.0

8
 1.0 0.0
 0.0 1.0
 0.0 1.0
 0.0 1.0

8
 1.0 0.0
 0.0 1.0
 0.0 1.0
 0.0 1.0

8
 1.0 0.0
 0.0 1.0
 0.0 1.0
 0.0 1.0

8
 1.0 0.0
 0.0 1.0
 0.0 1.0
 0.0 1.0

8
 1.0 0.0
 0.0 1.0
 0.0 1.0
 0.0 1.0

8
 1.0 0.0
 0.0 1.0
 0.0 1.0
 0.0 1.0

8
 1.0 0.0
 0.0 1.0
 0.0 1.0
 0.0 1.0

8
 1.0 0.0
 0.0 1.0
 0.0 1.0
 0.0 1.0

8
 1.0 0.0
 0.0 1.0
 0.0 1.0
 0.0 1.0

8
 1.0 0.0
 0.0 1.0
 0.0 1.0
 0.0 1.0

8
 1.0 0.0
 0.0 1.0
 0.0 1.0
 0.0 1.0

8
 1.0 0.0
 0.0 1.0
 0.0 1.0
 0.0 1.0

8
 1.0 0.0
 0.0 1.0
 0.0 1.0
 0.0 1.0

8
 1.0 0.0
 0.0 1.0
 0.0 1.0
 0.0 1.0

4
 1.0 0.0
 0.0 1.0

8
 1.0 0.0
 0.0 1.0
 0.0 1.0
 0.0 1.0

4
 1.0 0.0
 0.0 1.0

8
 1.0 0.0
 0.0 1.0
 0.0 1.0
 0.0 1.0

8
 1.0 0.0
 0.0 1.0
 0.0 1.0
 0.0 1.0

8
 1.0 0.0
 0.0 1.0
 0.0 1.0
 0.0 1.0

4
 1.0 0.0
 0.0 1.0

8
 1.0 0.0
 0.0 1.0
 0.0 1.0
 0.0 1.0

4
 1.0 0.0
 0.0 1.0

8
 1.0 0.0
 0.0 1.0
 0.0 1.0
 0.0 1.0

8
 1.0 0.0
 0.0 1.0
 0.0 1.0
 0.0 1.0

8
 1.0 0.0
 0.0 1.0
 0.0 1.0
 0.0 1.0

4
 1.0 0.0
 0.0 1.0

8
 1.0 0.0
 0.0 1.0
 0.0 1.0
 0.0 1.0

8
 1.0 0.0
 0.0 1.0
 0.0 1.0
 0.0 1.0

8
 1.0 0.0
 0.0 1.0
 0.0 1.0
 0.0 1.0

8
 1.0 0.0
 0.0 1.0
 0.0 1.0
 0.0 1.0

8
 1.0 0.0
 0.0 1.0
 0.0 1.0
 0.0 1.0

8
 1.0 0.0
 0.0 1.0
 0.0 1.0
 0.0 1.0

8
 1.0 0.0
 0.0 1.0
 0.0 1.0
 0.0 1.0

8
 1.0 0.0
 0.0 1.0
 0.0 1.0
 0.0 1.0

8
 1.0 0.0
 0.0 1.0
 0.0 1.0
 0.0 1.0

8
 1.0 0.0
 0.0 1.0
 0.0 1.0
 0.0 1.0

8
 1.0 0.0
 0.0 1.0
 0.0 1.0
 0.0 1.0

4
 1.0 0.0
 0.0 1.0

8
 1.0 0.0
 1.0 0.0
 0.0 1.0
 1.0 0.0

4
 1.0 0.0
 0.0 1.0

8
 1.0 0.0
 1.0 0.0
 0.0 1.0
 1.0 0.0

4
 1.0 0.0
 0.0 1.0

4
 1.0 0.0
 0.0 1.0

4
 1.0 0.0
 0.0 1.0

8
 1.0 0.0
 1.0 0.0
 0.0 1.0
 1.0 0.0

4
 1.0 0.0
 0.0 1.0

8
 1.0 0.0
 1.0 0.0
 0.0 1.0
 1.0 0.0

4
 1.0 0.0
 0.0 1.0

4
 1.0 0.0
 0.0 1.0

4
 1.0 0.0
 0.0 1.0

8
 1.0 0.0
 1.0 0.0
 0.0 1.0
 1.0 0.0

4
 1.0 0.0
 0.0 1.0

4
 1.0 0.0
 0.0 1.0

4
 1.0 0.0
 0.0 1.0

4
 1.0 0.0
 0.0 1.0

4
 1.0 0.0
 0.0 1.0

4
 1.0 0.0
 0.0 1.0

4
 1.0 0.0
 0.0 1.0

4
 1.0 0.0
 0.0 1.0

4
 1.0 0.0
 0.0 1.0

4
 1.0 0.0
 0.0 1.0

4
 1.0 0.0
 0.0 1.0

8
 1.0 0.0
 1.0 0.0
 0.0 1.0
 1.0 0.0

8
 1.0 0.0
 1.0 0.0
 0.0 1.0
 1.0 0.0

8
 1.0 0.0
 1.0 0.0
 0.0 1.0
 1.0 0.0

8
 1.0 0.0
 1.0 0.0
 0.0 1.0
 1.0 0.0

8
 1.0 0.0
 1.0 0.0
 0.0 1.0
 1.0 0.0

8
 1.0 0.0
 1.0 0.0
 0.0 1.0
 1.0 0.0

8
 1.0 0.0
 1.0 0.0
 0.0 1.0
 1.0 0.0

8
 1.0 0.0
 1.0 0.0
 0.0 1.0
 1.0 0.0

8
 1.0 0.0
 1.0 0.0
 0.0 1.0
 1.0 0.0

8
 1.0 0.0
 1.0 0.0
 0.0 1.0
 1.0 0.0

8
 1.0 0.0
 1.0 0.0
 0.0 1.0
 1.0 0.0

8
 1.0 0.0
 1.0 0.0
 0.0 1.0
 1.0 0.0

8
 1.0 0.0
 1.0 0.0
 0.0 1.0
 1.0 0.0

8
 1.0 0.0
 1.0 0.0
 0.0 1.0
 1.0 0.0

8
 1.0 0.0
 1.0 0.0
 0.0 1.0
 1.0 0.0

8
 1.0 0.0
 1.0 0.0
 0.0 1.0
 1.0 0.0

8
 1.0 0.0
 1.0 0.0
 0.0 1.0
 1.0 0.0

8
 1.0 0.0
 1.0 0.0
 0.0 1.0
 1.0 0.0

8
 1.0 0.0
 1.0 0.0
 0.0 1.0
 1.0 0.0

8
 1.0 0.0
 1.0 0.0
 0.0 1.0
 1.0 0.0

8
 1.0 0.0
 1.0 0.0
 0.0 1.0
 1.0 0.0

8
 1.0 0.0
 1.0 0.0
 0.0 1.0
 1.0 0.0

8
 1.0 0.0
 1.0 0.0
 0.0 1.0
 1.0 0.0

8
 1.0 0.0
 1.0 0.0
 0.0 1.0
 1.0 0.0

8
 1.0 0.0
 1.0 0.0
 0.0 1.0
 1.0 0.0

8
 1.0 0.0
 1.0 0.0
 0.0 1.0
 1.0 0.0

8
 1.0 0.0
 1.0 0.0
 0.0 1.0
 1.0 0.0

8
 1.0 0.0
 1.0 0.0
 0.0 1.0
 1.0 0.0

8
 1.0 0.0
 1.0 0.0
 0.0 1.0
 1.0 0.0

8
 1.0 0.0
 1.0 0.0
 0.0 1.0
 1.0 0.0

8
 1.0 0.0
 1.0 0.0
 0.0 1.0
 1.0 0.0

8
 1.0 0.0
 1.0 0.0
 0.0 1.0
 1.0 0.0

8
 1.0 0.0
 1.0 0.0
 0.0 1.0
 1.0 0.0

8
 1.0 0.0
 1.0 0.0
 0.0 1.0
 1.0 0.0

8
 1.0 0.0
 1.0 0.0
 0.0 1.0
 1.0 0.0

8
 1.0 0.0
 1.0 0.0
 0.0 1.0
 1.0 0.0

8
 1.0 0.0
 1.0 0.0
 0.0 1.0
 1.0 0.0

8
 1.0 0.0
 1.0 0.0
 0.0 1.0
 1.0 0.0

8
 1.0 0.0
 1.0 0.0
 0.0 1.0
 1.0 0.0

8
 1.0 0.0
 1.0 0.0
 0.0 1.0
 1.0 0.0

8
 1.0 0.0
 1.0 0.0
 0.0 1.0
 1.0 0.0

8
 1.0 0.0
 1.0 0.0
 0.0 1.0
 1.0 0.0

8
 1.0 0.0
 1.0 0.0
 0.0 1.0
 1.0 0.0

8
 1.0 0.0
 1.0 0.0
 0.0 1.0
 1.0 0.0

8
 1.0 0.0
 1.0 0.0
 0.0 1.0
 1.0 0.0

8
 1.0 0.0
 0.0 1.0
 0.0 1.0
 0.0 1.0

8
 1.0 0.0
 0.0 1.0
 0.0 1.0
 0.0 1.0

8
 1.0 0.0
 0.0 1.0
 0.0 1.0
 0.0 1.0

8
 1.0 0.0
 0.0 1.0
 0.0 1.0
 0.0 1.0

8
 1.0 0.0
 0.0 1.0
 0.0 1.0
 0.0 1.0

8
 1.0 0.0
 0.0 1.0
 0.0 1.0
 0.0 1.0

8
 1.0 0.0
 0.0 1.0
 0.0 1.0
 0.0 1.0

8
 1.0 0.0
 0.0 1.0
 0.0 1.0
 0.0 1.0

8
 1.0 0.0
 0.0 1.0
 0.0 1.0
 0.0 1.0

8
 1.0 0.0
 0.0 1.0
 0.0 1.0
 0.0 1.0

8
 1.0 0.0
 0.0 1.0
 0.0 1.0
 0.0 1.0

8
 1.0 0.0
 0.0 1.0
 0.0 1.0
 0.0 1.0

8
 1.0 0.0
 0.0 1.0
 0.0 1.0
 0.0 1.0

8
 1.0 0.0
 0.0 1.0
 0.0 1.0
 0.0 1.0

8
 1.0 0.0
 0.0 1.0
 0.0 1.0
 0.0 1.0

8
 1.0 0.0
 0.0 1.0
 0.0 1.0
 0.0 1.0

8
 1.0 0.0
 0.0 1.0
 0.0 1.0
 0.0 1.0

8
 1.0 0.0
 0.0 1.0
 0.0 1.0
 0.0 1.0

8
 1.0 0.0
 0.0 1.0
 0.0 1.0
 0.0 1.0

8
 1.0 0.0
 0.0 1.0
 0.0 1.0
 0.0 1.0

8
 1.0 0.0
 0.0 1.0
 0.0 1.0
 0.0 1.0

8
 1.0 0.0
 0.0 1.0
 0.0 1.0
 0.0 1.0

8
 1.0 0.0
 0.0 1.0
 0.0 1.0
 0.0 1.0

8
 1.0 0.0
 0.0 1.0
 0.0 1.0
 0.0 1.0

8
 1.0 0.0
 0.0 1.0
 0.0 1.0
 0.0 1.0

8
 1.0 0.0
 0.0 1.0
 0.0 1.0
 0.0 1.0

8
 1.0 0.0
 0.0 1.0
 0.0 1.0
 0.0 1.0

8
 1.0 0.0
 0.0 1.0
 0.0 1.0
 0.0 1.0

8
 1.0 0.0
 0.0 1.0
 0.0 1.0
 0.0 1.0

8
 1.0 0.0
 0.0 1.0
 0.0 1.0
 0.0 1.0

8
 1.0 0.0
 0.0 1.0
 0.0 1.0
 0.0 1.0

8
 1.0 0.0
 0.0 1.0
 0.0 1.0
 0.0 1.0

8
 1.0 0.0
 0.0 1.0
 0.0 1.0
 0.0 1.0

8
 1.0 0.0
 0.0 1.0
 0.0 1.0
 0.0 1.0

8
 1.0 0.0
 0.0 1.0
 0.0 1.0
 0.0 1.0

4
 1.0 0.0
 0.0 1.0

8
 1.0 0.0
 0.0 1.0
 0.0 1.0
 0.0 1.0

8
 1.0 0.0
 0.0 1.0
 0.0 1.0
 0.0 1.0

4
 1.0 0.0
 0.0 1.0

8
 1.0 0.0
 0.0 1.0
 0.0 1.0
 0.0 1.0

8
 1.0 0.0
 0.0 1.0
 0.0 1.0
 0.0 1.0

8
 1.0 0.0
 0.0 1.0
 0.0 1.0
 0.0 1.0

8
 1.0 0.0
 0.0 1.0
 0.0 1.0
 0.0 1.0

4
 1.0 0.0
 0.0 1.0

8
 1.0 0.0
 0.0 1.0
 0.0 1.0
 0.0 1.0

8
 1.0 0.0
 0.0 1.0
 0.0 1.0
 0.0 1.0

4
 1.0 0.0
 0.0 1.0

4
 1.0 0.0
 0.0 1.0

8
 1.0 0.0
 0.0 1.0
 0.0 1.0
 0.0 1.0

8
 1.0 0.0
 0.0 1.0
 0.0 1.0
 0.0 1.0

8
 1.0 0.0
 0.0 1.0
 0.0 1.0
 0.0 1.0

4
 1.0 0.0
 0.0 1.0

8
 1.0 0.0
 0.0 1.0
 0.0 1.0
 0.0 1.0

4
 1.0 0.0
 0.0 1.0

4
 1.0 0.0
 0.0 1.0

8
 1.0 0.0
 0.0 1.0
 0.0 1.0
 0.0 1.0

8
 1.0 0.0
 0.0 1.0
 0.0 1.0
 0.0 1.0

4
 1.0 0.0
 0.0 1.0

4
 1.0 0.0
 0.0 1.0

8
 1.0 0.0
 0.0 1.0
 0.0 1.0
 0.0 1.0

8
 1.0 0.0
 1.0 0.0
 0.0 1.0
 1.0 0.0

4
 1.0 0.0
 0.0 1.0

4
 1.0 0.0
 0.0 1.0

8
 1.0 0.0
 1.0 0.0
 0.0 1.0
 1.0 0.0

4
 1.0 0.0
 0.0 1.0

4
 1.0 0.0
 0.0 1.0

4
 1.0 0.0
 0.0 1.0

4
 1.0 0.0
 0.0 1.0

8
 1.0 0.0
 1.0 0.0
 0.0 1.0
 1.0 0.0

4
 1.0 0.0
 0.0 1.0

4
 1.0 0.0
 0.0 1.0

8
 1.0 0.0
 1.0 0.0
 0.0 1.0
 1.0 0.0

8
 1.0 0.0
 1.0 0.0
 0.0 1.0
 1.0 0.0

4
 1.0 0.0
 0.0 1.0

4
 1.0 0.0
 0.0 1.0

4
 1.0 0.0
 0.0 1.0

8
 1.0 0.0
 1.0 0.0
 0.0 1.0
 1.0 0.0

8
 1.0 0.0
 1.0 0.0
 0.0 1.0
 1.0 0.0

4
 1.0 0.0
 0.0 1.0

8
 1.0 0.0
 1.0 0.0
 0.0 1.0
 1.0 0.0

8
 1.0 0.0
 1.0 0.0
 0.0 1.0
 1.0 0.0

8
 1.0 0.0
 1.0 0.0
 0.0 1.0
 1.0 0.0

8
 1.0 0.0
 1.0 0.0
 0.0 1.0
 1.0 0.0

4
 1.0 0.0
 0.0 1.0

4
 1.0 0.0
 0.0 1.0

8
 1.0 0.0
 1.0 0.0
 0.0 1.0
 1.0 0.0

8
 1.0 0.0
 1.0 0.0
 0.0 1.0
 1.0 0.0

8
 1.0 0.0
 1.0 0.0
 0.0 1.0
 1.0 0.0

8
 1.0 0.0
 1.0 0.0
 0.0 1.0
 1.0 0.0

4
 1.0 0.0
 0.0 1.0

8
 1.0 0.0
 1.0 0.0
 0.0 1.0
 1.0 0.0

8
 1.0 0.0
 1.0 0.0
 0.0 1.0
 1.0 0.0

8
 1.0 0.0
 1.0 0.0
 0.0 1.0
 1.0 0.0

8
 1.0 0.0
 1.0 0.0
 0.0 1.0
 1.0 0.0

8
 1.0 0.0
 1.0 0.0
 0.0 1.0
 1.0 0.0

8
 1.0 0.0
 1.0 0.0
 0.0 1.0
 1.0 0.0

8
 1.0 0.0
 1.0 0.0
 0.0 1.0
 1.0 0.0

8
 1.0 0.0
 1.0 0.0
 0.0 1.0
 1.0 0.0

8
 1.0 0.0
 1.0 0.0
 0.0 1.0
 1.0 0.0

8
 1.0 0.0
 1.0 0.0
 0.0 1.0
 1.0 0.0

8
 1.0 0.0
 1.0 0.0
 0.0 1.0
 1.0 0.0

8
 1.0 0.0
 1.0 0.0
 0.0 1.0
 1.0 0.0

8
 1.0 0.0
 1.0 0.0
 0.0 1.0
 1.0 0.0

8
 1.0 0.0
 1.0 0.0
 0.0 1.0
 1.0 0.0

8
 1.0 0.0
 1.0 0.0
 0.0 1.0
 1.0 0.0

8
 1.0 0.0
 1.0 0.0
 0.0 1.0
 1.0 0.0

8
 1.0 0.0
 1.0 0.0
 0.0 1.0
 1.0 0.0

8
 1.0 0.0
 1.0 0.0
 0.0 1.0
 1.0 0.0

8
 1.0 0.0
 1.0 0.0
 0.0 1.0
 1.0 0.0

8
 1.0 0.0
 1.0 0.0
 0.0 1.0
 1.0 0.0

8
 1.0 0.0
 1.0 0.0
 0.0 1.0
 1.0 0.0

8
 1.0 0.0
 1.0 0.0
 0.0 1.0
 1.0 0.0

8
 1.0 0.0
 1.0 0.0
 0.0 1.0
 1.0 0.0

8
 1.0 0.0
 1.0 0.0
 0.0 1.0
 1.0 0.0

8
 1.0 0.0
 1.0 0.0
 0.0 1.0
 1.0 0.0

8
 1.0 0.0
 1.0 0.0
 0.0 1.0
 1.0 0.0

8
 1.0 0.0
 1.0 0.0
 0.0 1.0
 1.0 0.0

8
 1.0 0.0
 1.0 0.0
 0.0 1.0
 1.0 0.0

8
 1.0 0.0
 1.0 0.0
 0.0 1.0
 1.0 0.0

8
 1.0 0.0
 1.0 0.0
 0.0 1.0
 1.0 0.0

8
 1.0 0.0
 1.0 0.0
 0.0 1.0
 1.0 0.0

8
 1.0 0.0
 1.0 0.0
 0.0 1.0
 1.0 0.0

8
 1.0 0.0
 1.0 0.0
 0.0 1.0
 1.0 0.0

8
 1.0 0.0
 1.0 0.0
 0.0 1.0
 1.0 0.0

8
 1.0 0.0
 1.0 0.0
 0.0 1.0
 1.0 0.0

8
 1.0 0.0
 0.0 1.0
 0.0 1.0
 0.0 1.0

8
 1.0 0.0
 0.0 1.0
 0.0 1.0
 0.0 1.0

8
 1.0 0.0
 0.0 1.0
 0.0 1.0
 0.0 1.0

8
 1.0 0.0
 0.0 1.0
 0.0 1.0
 0.0 1.0

8
 1.0 0.0
 0.0 1.0
 0.0 1.0
 0.0 1.0

8
 1.0 0.0
 0.0 1.0
 0.0 1.0
 0.0 1.0

8
 1.0 0.0
 0.0 1.0
 0.0 1.0
 0.0 1.0

8
 1.0 0.0
 0.0 1.0
 0.0 1.0
 0.0 1.0

8
 1.0 0.0
 0.0 1.0
 0.0 1.0
 0.0 1.0

8
 1.0 0.0
 0.0 1.0
 0.0 1.0
 0.0 1.0

8
 1.0 0.0
 0.0 1.0
 0.0 1.0
 0.0 1.0

8
 1.0 0.0
 0.0 1.0
 0.0 1.0
 0.0 1.0

8
 1.0 0.0
 0.0 1.0
 0.0 1.0
 0.0 1.0

8
 1.0 0.0
 0.0 1.0
 0.0 1.0
 0.0 1.0

8
 1.0 0.0
 0.0 1.0
 0.0 1.0
 0.0 1.0

8
 1.0 0.0
 0.0 1.0
 0.0 1.0
 0.0 1.0

8
 1.0 0.0
 0.0 1.0
 0.0 1.0
 0.0 1.0

8
 1.0 0.0
 0.0 1.0
 0.0 1.0
 0.0 1.0

8
 1.0 0.0
 0.0 1.0
 0.0 1.0
 0.0 1.0

8
 1.0 0.0
 0.0 1.0
 0.0 1.0
 0.0 1.0

8
 1.0 0.0
 0.0 1.0
 0.0 1.0
 0.0 1.0

8
 1.0 0.0
 0.0 1.0
 0.0 1.0
 0.0 1.0

8
 1.0 0.0
 0.0 1.0
 0.0 1.0
 0.0 1.0

8
 1.0 0.0
 0.0 1.0
 0.0 1.0
 0.0 1.0

8
 1.0 0.0
 0.0 1.0
 0.0 1.0
 0.0 1.0

8
 1.0 0.0
 0.0 1.0
 0.0 1.0
 0.0 1.0

8
 1.0 0.0
 0.0 1.0
 0.0 1.0
 0.0 1.0

8
 1.0 0.0
 0.0 1.0
 0.0 1.0
 0.0 1.0

8
 1.0 0.0
 0.0 1.0
 0.0 1.0
 0.0 1.0

8
 1.0 0.0
 0.0 1.0
 0.0 1.0
 0.0 1.0

8
 1.0 0.0
 0.0 1.0
 0.0 1.0
 0.0 1.0

8
 1.0 0.0
 0.0 1.0
 0.0 1.0
 0.0 1.0

8
 1.0 0.0
 0.0 1.0
 0.0 1.0
 0.0 1.0

8
 1.0 0.0
 0.0 1.0
 0.0 1.0
 0.0 1.0

8
 1.0 0.0
 0.0 1.0
 0.0 1.0
 0.0 1.0

8
 1.0 0.0
 0.0 1.0
 0.0 1.0
 0.0 1.0

4
 1.0 0.0
 0.0 1.0

8
 1.0 0.0
 0.0 1.0
 0.0 1.0
 0.0 1.0

8
 1.0 0.0
 0.0 1.0
 0.0 1.0
 0.0 1.0

4
 1.0 0.0
 0.0 1.0

8
 1.0 0.0
 0.0 1.0
 0.0 1.0
 0.0 1.0

8
 1.0 0.0
 0.0 1.0
 0.0 1.0
 0.0 1.0

8
 1.0 0.0
 0.0 1.0
 0.0 1.0
 0.0 1.0

4
 1.0 0.0
 0.0 1.0

8
 1.0 0.0
 0.0 1.0
 0.0 1.0
 0.0 1.0

4
 1.0 0.0
 0.0 1.0

8
 1.0 0.0
 0.0 1.0
 0.0 1.0
 0.0 1.0

4
 1.0 0.0
 0.0 1.0

8
 1.0 0.0
 0.0 1.0
 0.0 1.0
 0.0 1.0

8
 1.0 0.0
 0.0 1.0
 0.0 1.0
 0.0 1.0

8
 1.0 0.0
 0.0 1.0
 0.0 1.0
 0.0 1.0

4
 1.0 0.0
 0.0 1.0

8
 1.0 0.0
 0.0 1.0
 0.0 1.0
 0.0 1.0

4
 1.0 0.0
 0.0 1.0

8
 1.0 0.0
 0.0 1.0
 0.0 1.0
 0.0 1.0

4
 1.0 0.0
 0.0 1.0

8
 1.0 0.0
 0.0 1.0
 0.0 1.0
 0.0 1.0

4
 1.0 0.0
 0.0 1.0

8
 1.0 0.0
 0.0 1.0
 0.0 1.0
 0.0 1.0

4
 1.0 0.0
 0.0 1.0

4
 1.0 0.0
 0.0 1.0

8
 1.0 0.0
 1.0 0.0
 0.0 1.0
 1.0 0.0

4
 1.0 0.0
 0.0 1.0

4
 1.0 0.0
 0.0 1.0

8
 1.0 0.0
 1.0 0.0
 0.0 1.0
 1.0 0.0

4
 1.0 0.0
 0.0 1.0

4
 1.0 0.0
 0.0 1.0

4
 1.0 0.0
 0.0 1.0

8
 1.0 0.0
 1.0 0.0
 0.0 1.0
 1.0 0.0

4
 1.0 0.0
 0.0 1.0

8
 1.0 0.0
 1.0 0.0
 0.0 1.0
 1.0 0.0

4
 1.0 0.0
 0.0 1.0

8
 1.0 0.0
 1.0 0.0
 0.0 1.0
 1.0 0.0

4
 1.0 0.0
 0.0 1.0

4
 1.0 0.0
 0.0 1.0

4
 1.0 0.0
 0.0 1.0

8
 1.0 0.0
 1.0 0.0
 0.0 1.0
 1.0 0.0

8
 1.0 0.0
 1.0 0.0
 0.0 1.0
 1.0 0.0

4
 1.0 0.0
 0.0 1.0

8
 1.0 0.0
 1.0 0.0
 0.0 1.0
 1.0 0.0

8
 1.0 0.0
 1.0 0.0
 0.0 1.0
 1.0 0.0

4
 1.0 0.0
 0.0 1.0

8
 1.0 0.0
 1.0 0.0
 0.0 1.0
 1.0 0.0

8
 1.0 0.0
 1.0 0.0
 0.0 1.0
 1.0 0.0

4
 1.0 0.0
 0.0 1.0

8
 1.0 0.0
 1.0 0.0
 0.0 1.0
 1.0 0.0

8
 1.0 0.0
 1.0 0.0
 0.0 1.0
 1.0 0.0

4
 1.0 0.0
 0.0 1.0

8
 1.0 0.0
 1.0 0.0
 0.0 1.0
 1.0 0.0

8
 1.0 0.0
 1.0 0.0
 0.0 1.0
 1.0 0.0

8
 1.0 0.0
 1.0 0.0
 0.0 1.0
 1.0 0.0

8
 1.0 0.0
 1.0 0.0
 0.0 1.0
 1.0 0.0

8
 1.0 0.0
 1.0 0.0
 0.0 1.0
 1.0 0.0

8
 1.0 0.0
 1.0 0.0
 0.0 1.0
 1.0 0.0

8
 1.0 0.0
 1.0 0.0
 0.0 1.0
 1.0 0.0

8
 1.0 0.0
 1.0 0.0
 0.0 1.0
 1.0 0.0

8
 1.0 0.0
 1.0 0.0
 0.0 1.0
 1.0 0.0

8
 1.0 0.0
 1.0 0.0
 0.0 1.0
 1.0 0.0

8
 1.0 0.0
 1.0 0.0
 0.0 1.0
 1.0 0.0

8
 1.0 0.0
 1.0 0.0
 0.0 1.0
 1.0 0.0

8
 1.0 0.0
 1.0 0.0
 0.0 1.0
 1.0 0.0

8
 1.0 0.0
 1.0 0.0
 0.0 1.0
 1.0 0.0

8
 1.0 0.0
 1.0 0.0
 0.0 1.0
 1.0 0.0

8
 1.0 0.0
 1.0 0.0
 0.0 1.0
 1.0 0.0

8
 1.0 0.0
 1.0 0.0
 0.0 1.0
 1.0 0.0

8
 1.0 0.0
 1.0 0.0
 0.0 1.0
 1.0 0.0

8
 1.0 0.0
 1.0 0.0
 0.0 1.0
 1.0 0.0

8
 1.0 0.0
 1.0 0.0
 0.0 1.0
 1.0 0.0

8
 1.0 0.0
 1.0 0.0
 0.0 1.0
 1.0 0.0

8
 1.0 0.0
 1.0 0.0
 0.0 1.0
 1.0 0.0

8
 1.0 0.0
 1.0 0.0
 0.0 1.0
 1.0 0.0

8
 1.0 0.0
 1.0 0.0
 0.0 1.0
 1.0 0.0

8
 1.0 0.0
 1.0 0.0
 0.0 1.0
 1.0 0.0

8
 1.0 0.0
 1.0 0.0
 0.0 1.0
 1.0 0.0

8
 1.0 0.0
 1.0 0.0
 0.0 1.0
 1.0 0.0

8
 1.0 0.0
 1.0 0.0
 0.0 1.0
 1.0 0.0

8
 1.0 0.0
 1.0 0.0
 0.0 1.0
 1.0 0.0

8
 1.0 0.0
 1.0 0.0
 0.0 1.0
 1.0 0.0

8
 1.0 0.0
 1.0 0.0
 0.0 1.0
 1.0 0.0

8
 1.0 0.0
 1.0 0.0
 0.0 1.0
 1.0 0.0

8
 1.0 0.0
 1.0 0.0
 0.0 1.0
 1.0 0.0

8
 1.0 0.0
 1.0 0.0
 0.0 1.0
 1.0 0.0

8
 1.0 0.0
 1.0 0.0
 0.0 1.0
 1.0 0.0

8
 1.0 0.0
 1.0 0.0
 0.0 1.0
 1.0 0.0

8
 1.0 0.0
 1.0 0.0
 0.0 1.0
 1.0 0.0

8
 1.0 0.0
 0.0 1.0
 0.0 1.0
 0.0 1.0

8
 1.0 0.0
 0.0 1.0
 0.0 1.0
 0.0 1.0

8
 1.0 0.0
 0.0 1.0
 0.0 1.0
 0.0 1.0

8
 1.0 0.0
 0.0 1.0
 0.0 1.0
 0.0 1.0

8
 1.0 0.0
 0.0 1.0
 0.0 1.0
 0.0 1.0

8
 1.0 0.0
 0.0 1.0
 0.0 1.0
 0.0 1.0

8
 1.0 0.0
 0.0 1.0
 0.0 1.0
 0.0 1.0

8
 1.0 0.0
 0.0 1.0
 0.0 1.0
 0.0 1.0

8
 1.0 0.0
 0.0 1.0
 0.0 1.0
 0.0 1.0

8
 1.0 0.0
 0.0 1.0
 0.0 1.0
 0.0 1.0

8
 1.0 0.0
 0.0 1.0
 0.0 1.0
 0.0 1.0

8
 1.0 0.0
 0.0 1.0
 0.0 1.0
 0.0 1.0

8
 1.0 0.0
 0.0 1.0
 0.0 1.0
 0.0 1.0

8
 1.0 0.0
 0.0 1.0
 0.0 1.0
 0.0 1.0

8
 1.0 0.0
 0.0 1.0
 0.0 1.0
 0.0 1.0

8
 1.0 0.0
 0.0 1.0
 0.0 1.0
 0.0 1.0

8
 1.0 0.0
 0.0 1.0
 0.0 1.0
 0.0 1.0

8
 1.0 0.0
 0.0 1.0
 0.0 1.0
 0.0 1.0

8
 1.0 0.0
 0.0 1.0
 0.0 1.0
 0.0 1.0

8
 1.0 0.0
 0.0 1.0
 0.0 1.0
 0.0 1.0

8
 1.0 0.0
 0.0 1.0
 0.0 1.0
 0.0 1.0

8
 1.0 0.0
 0.0 1.0
 0.0 1.0
 0.0 1.0

8
 1.0 0.0
 0.0 1.0
 0.0 1.0
 0.0 1.0

8
 1.0 0.0
 0.0 1.0
 0.0 1.0
 0.0 1.0

8
 1.0 0.0
 0.0 1.0
 0.0 1.0
 0.0 1.0

8
 1.0 0.0
 0.0 1.0
 0.0 1.0
 0.0 1.0

8
 1.0 0.0
 0.0 1.0
 0.0 1.0
 0.0 1.0

8
 1.0 0.0
 0.0 1.0
 0.0 1.0
 0.0 1.0

8
 1.0 0.0
 0.0 1.0
 0.0 1.0
 0.0 1.0

8
 1.0 0.0
 0.0 1.0
 0.0 1.0
 0.0 1.0

8
 1.0 0.0
 0.0 1.0
 0.0 1.0
 0.0 1.0

8
 1.0 0.0
 0.0 1.0
 0.0 1.0
 0.0 1.0

8
 1.0 0.0
 0.0 1.0
 0.0 1.0
 0.0 1.0

8
 1.0 0.0
 0.0 1.0
 0.0 1.0
 0.0 1.0

8
 1.0 0.0
 0.0 1.0
 0.0 1.0
 0.0 1.0

8
 1.0 0.0
 0.0 1.0
 0.0 1.0
 0.0 1.0

8
 1.0 0.0
 0.0 1.0
 0.0 1.0
 0.0 1.0

4
 1.0 0.0
 0.0 1.0

8
 1.0 0.0
 0.0 1.0
 0.0 1.0
 0.0 1.0

8
 1.0 0.0
 0.0 1.0
 0.0 1.0
 0.0 1.0

4
 1.0 0.0
 0.0 1.0

8
 1.0 0.0
 0.0 1.0
 0.0 1.0
 0.0 1.0

8
 1.0 0.0
 0.0 1.0
 0.0 1.0
 0.0 1.0

4
 1.0 0.0
 0.0 1.0

4
 1.0 0.0
 0.0 1.0

8
 1.0 0.0
 0.0 1.0
 0.0 1.0
 0.0 1.0

8
 1.0 0.0
 0.0 1.0
 0.0 1.0
 0.0 1.0

4
 1.0 0.0
 0.0 1.0

8
 1.0 0.0
 0.0 1.0
 0.0 1.0
 0.0 1.0

8
 1.0 0.0
 0.0 1.0
 0.0 1.0
 0.0 1.0

8
 1.0 0.0
 0.0 1.0
 0.0 1.0
 0.0 1.0

4
 1.0 0.0
 0.0 1.0

4
 1.0 0.0
 0.0 1.0

8
 1.0 0.0
 0.0 1.0
 0.0 1.0
 0.0 1.0

4
 1.0 0.0
 0.0 1.0

8
 1.0 0.0
 0.0 1.0
 0.0 1.0
 0.0 1.0

8
 1.0 0.0
 0.0 1.0
 0.0 1.0
 0.0 1.0

4
 1.0 0.0
 0.0 1.0

8
 1.0 0.0
 0.0 1.0
 0.0 1.0
 0.0 1.0

4
 1.0 0.0
 0.0 1.0

4
 1.0 0.0
 0.0 1.0

4
 1.0 0.0
 0.0 1.0

4
 1.0 0.0
 0.0 1.0

4
 1.0 0.0
 0.0 1.0

4
 1.0 0.0
 0.0 1.0

4
 1.0 0.0
 0.0 1.0

4
 1.0 0.0
 0.0 1.0

4
 1.0 0.0
 0.0 1.0

4
 1.0 0.0
 0.0 1.0

4
 1.0 0.0
 0.0 1.0

4
 1.0 0.0
 0.0 1.0

4
 1.0 0.0
 0.0 1.0

4
 1.0 0.0
 0.0 1.0

4
 1.0 0.0
 0.0 1.0

4
 1.0 0.0
 0.0 1.0

4
 1.0 0.0
 0.0 1.0

4
 1.0 0.0
 0.0 1.0

4
 1.0 0.0
 0.0 1.0

4
 1.0 0.0
 0.0 1.0

4
 1.0 0.0
 0.0 1.0

4
 1.0 0.0
 0.0 1.0

4
 1.0 0.0
 0.0 1.0

4
 1.0 0.0
 0.0 1.0

4
 1.0 0.0
 0.0 1.0

4
 1.0 0.0
 0.0 1.0

4
 1.0 0.0
 0.0 1.0

4
 1.0 0.0
 0.0 1.0

4
 1.0 0.0
 0.0 1.0

4
 1.0 0.0
 0.0 1.0

4
 1.0 0.0
 0.0 1.0

4
 1.0 0.0
 0.0 1.0

4
 1.0 0.0
 0.0 1.0

4
 1.0 0.0
 0.0 1.0

4
 1.0 0.0
 0.0 1.0

4
 1.0 0.0
 0.0 1.0

4
 1.0 0.0
 0.0 1.0

4
 1.0 0.0
 0.0 1.0

4
 1.0 0.0
 0.0 1.0

4
 1.0 0.0
 0.0 1.0

4
 1.0 0.0
 0.0 1.0

